#SOLVERNAME# PAJ_CPLEX_MOSEK_msd
#SOLVER# Pajarito.PajaritoSolver(3,3600.0,1.0e-5,true,CPLEX.CplexSolver(Any[(:CPX_PARAM_THREADS,1),(:CPX_PARAM_SCRIND,1),(:CPX_PARAM_EPINT,1.0e-8),(:CPX_PARAM_EPRHS,1.0e-7),(:CPX_PARAM_EPGAP,1.0e-5)]),Pajarito.UnsetSolver(),0,false,true,Mosek.MosekMathProgSolverInterface.MosekSolver(Any[(:LOG,0),(:NUM_THREADS,1)]),true,true,false,false,true,false,false,true,false,true,true,true,true,false,true,2.0,true,false,false,true,1.0e-10,1.0e-6)
#INSTANCE# shortfall_20_0.cbf.gz
#TIMELIMIT# 3600.0

Problem dimensions:
       variables |        85
     constraints |       151
   nonzeros in A |      1052

Cones summary:
Cone             | Count     | Min dim.  | Max dim. 
    Second order |         2 |        21 |        21

Variable types:
      continuous |        64
         integer |        21

Transforming data...               0.00s

Creating conic subproblem...       0.00s

Building MIP model...              0.00s

Solving conic relaxation...        0.00s
 - Relaxation status    =        Optimal
 - Relaxation objective =      -1.090489

Mixed integer rounding cuts applied:  5
Gomory fractional cuts applied:  3
User cuts applied:  117

Root node processing (before b&c):
  Real time             =    0.47 sec. (15.88 ticks)
Sequential b&c:
  Real time             =    0.01 sec. (5.82 ticks)
                          ------------
Total (root+branch&cut) =    0.48 sec. (21.70 ticks)
Warning: Control callbacks may disable some MIP features.
Tried aggregator 1 time.
MIP Presolve eliminated 126 rows and 0 columns.
MIP Presolve modified 47 coefficients.
Reduced MIP has 187 rows, 124 columns, and 1368 nonzeros.
Reduced MIP has 21 binaries, 0 generals, 0 SOSs, and 0 indicators.
Presolve time = 0.00 sec. (0.65 ticks)
Probing time = 0.00 sec. (0.04 ticks)
MIP emphasis: balance optimality and feasibility.
MIP search method: traditional branch-and-cut.
Parallel mode: none, using 1 thread.
Root relaxation solution time = 0.00 sec. (1.75 ticks)

        Nodes                                         Cuts/
   Node  Left     Objective  IInf  Best Integer    Best Bound    ItCnt     Gap

      0     0       -1.0905     2                     -1.0905      105         
*     0+    0                           -1.0902       -1.0905             0.02%
*     0+    0                           -1.0902       -1.0905             0.02%
*     0+    0                           -1.0902       -1.0905             0.02%
*     0+    0                           -1.0904       -1.0905             0.01%
      0     2       -1.0905     3       -1.0904       -1.0905      105    0.01%
Elapsed time = 0.03 sec. (20.71 ticks, tree = 0.01 MB, solutions = 2)
*     5     1      integral     0       -1.0905       -1.0905      126    0.00%
*     5+    1                           -1.0905       -1.0905             0.00%
*    13     1      integral     0       -1.0905       -1.0905      288    0.00%

Starting MIP-solver-driven algorithm

MIP-solver-driven algorithm summary:
 - Status               =        Optimal
 - Best feasible        =  -1.090489e+00
 - Best bound           =  -1.090489e+00
 - Relative opt. gap    =     -1.070e-07
 - Total time (s)       =       5.66e-02

Timers (s):
 - Setup                =   1.46e-03
 -- Transform data      =   1.47e-04
 -- Create conic data   =   7.66e-04
 -- Create MIP data     =   5.43e-04
 - Algorithm            =   5.51e-02
 -- Solve relaxation    =   4.17e-03
 -- Get relaxation cuts =   6.85e-05
 -- MIP solver driving  =   5.06e-02
 -- Solve subproblems   =   1.09e-02
 -- Get subproblem cuts =   9.51e-04
 -- Get primal cuts     =   4.56e-04

Counters:
 - Lazy callbacks       =    21
 -- Integer repeats     =    14
 -- Conic subproblems   =     7
 --- Infeasible         =     0
 --- Optimal            =     7
 --- Suboptimal         =     0
 --- UserLimit          =     0
 --- ConicFailure       =     0
 --- Other status       =     0
 -- Feasible solutions  =    21
 --- From subproblems   =     7
 --- In lazy callback   =    14
 - Heuristic callbacks  =     8
 -- Solutions passed    =     3

Solution returned by MIP solver

Outer-approximation cuts added:
Cone             | Relax.    | Violated  | Nonviol. 
    Second order |        40 |       159 |         0

0 numerically unstable cone duals encountered

Distance to feasibility (negative indicates strict feasibility):
Cone             | Variable  | Constraint
          Linear |  0.00e+00 |  1.11e-16
    Second order |        NA |  6.68e-06

Distance to integrality of integer/binary variables:
         integer |  0.00e+00


Implied bound cuts applied:  1
User cuts applied:  159

Root node processing (before b&c):
  Real time             =    0.03 sec. (20.70 ticks)
Sequential b&c:
  Real time             =    0.02 sec. (18.46 ticks)
                          ------------
Total (root+branch&cut) =    0.05 sec. (39.16 ticks)
#STATUS# Optimal
#OBJVAL# -1.090489463822997
#OBJBOUND# -1.0904893470875856
#TIMESOLVER# 0.056577205657958984
#TIMEALL# 0.056984901428222656
#SOLUTION# [0.14558728480017535,0.014850543434309197,0.15802847609822843,0.0,0.0824083234892984,0.0648143870626294,0.019160250470799972,0.0,0.0,0.0,0.04254389424948982,0.0,0.16127563291957442,0.0,0.03160272883455717,0.0,0.0,0.0,0.0,0.0,0.27972847864093775,0.0,1.0,1.0,1.0,-0.0,1.0,1.0,1.0,-0.0,-0.0,-0.0,1.0,0.0,1.0,-0.0,1.0,-0.0,0.0,0.0,0.0,0.0,1.0,0.05365008665113726,0.02105117149745079,0.05264024053710121,0.014372395200562741,0.10354046460607089,0.02014626323618646,0.014061236096306565,0.022294162845591107,0.012655753330636186,0.016831182650980957,0.04012151503165494,0.012083400625182617,0.08605271897921873,0.011632392607070271,0.026813293494605643,0.029733356433067716,0.01732463858821519,0.01566391721207612,0.018859800149461946,0.01304099671546941,0.1904894638229968,0.11989309495912338,0.04704354197517714,0.11763636838882895,0.03211832543302321,0.23138428155482416,0.04502132246223316,0.03142297095435171,0.0498212836162112,0.028282105967801698,0.03761303486740284,0.08966048168520778,0.027003056080869198,0.1923040101529367,0.02599517798563926,0.05992028985935394,0.06644582234253828,0.038715772313582086,0.03500451967489003,0.04214643351711343,0.029143018309295644,0.3904894638229969]
